FourierSAT_Github_AIJ/benchmarks/MAXSAT_benchmarks/1/dimacs-mod/p_hat300-2.clq.cnf
c File  p_hat300-2.clq
c
c Source: P. Soriano and M. Gendreau at  patrick@crt.umontreal.ca
c
c Reference: p-hat graphs are generated with the p-hat generator
c 	      which is a generalisation of the classical uniform
c 	      random graph generator.
c 	      Graphs generated with p-hat have wider node degree spread
c 	      and larger cliques than uniform graphs.
c
c NOTE: September 23, 1993 Corrected corrupted file at DIMACS.
c
c
c Generation parameters: 
c 	n =    300 a =  0.00  b =  1.00  Expected density =  0.50
c	Seed =       8713       Real density =  0.489
c
p cnf 43 736
1 5 0
-1 -5 0
1 7 0
-1 -7 0
1 9 0
-1 -9 0
1 13 0
-1 -13 0
1 22 0
-1 -22 0
1 26 0
-1 -26 0
1 28 0
-1 -28 0
1 29 0
-1 -29 0
1 31 0
-1 -31 0
1 34 0
-1 -34 0
1 35 0
-1 -35 0
2 6 0
-2 -6 0
2 7 0
-2 -7 0
2 33 0
-2 -33 0
2 40 0
-2 -40 0
2 41 0
-2 -41 0
3 6 0
-3 -6 0
3 10 0
-3 -10 0
3 25 0
-3 -25 0
3 26 0
-3 -26 0
3 28 0
-3 -28 0
3 29 0
-3 -29 0
3 32 0
-3 -32 0
3 35 0
-3 -35 0
3 36 0
-3 -36 0
3 41 0
-3 -41 0
4 7 0
-4 -7 0
4 9 0
-4 -9 0
4 12 0
-4 -12 0
4 15 0
-4 -15 0
4 16 0
-4 -16 0
4 19 0
-4 -19 0
4 21 0
-4 -21 0
4 25 0
-4 -25 0
4 26 0
-4 -26 0
4 27 0
-4 -27 0
4 28 0
-4 -28 0
4 33 0
-4 -33 0
4 35 0
-4 -35 0
4 39 0
-4 -39 0
4 41 0
-4 -41 0
5 6 0
-5 -6 0
5 7 0
-5 -7 0
5 8 0
-5 -8 0
5 9 0
-5 -9 0
5 11 0
-5 -11 0
5 14 0
-5 -14 0
5 16 0
-5 -16 0
5 18 0
-5 -18 0
5 19 0
-5 -19 0
5 21 0
-5 -21 0
5 24 0
-5 -24 0
5 25 0
-5 -25 0
5 26 0
-5 -26 0
5 29 0
-5 -29 0
5 30 0
-5 -30 0
5 32 0
-5 -32 0
5 33 0
-5 -33 0
5 35 0
-5 -35 0
5 36 0
-5 -36 0
5 39 0
-5 -39 0
6 7 0
-6 -7 0
6 12 0
-6 -12 0
6 15 0
-6 -15 0
6 20 0
-6 -20 0
6 22 0
-6 -22 0
6 24 0
-6 -24 0
6 26 0
-6 -26 0
6 27 0
-6 -27 0
6 29 0
-6 -29 0
6 31 0
-6 -31 0
6 32 0
-6 -32 0
6 34 0
-6 -34 0
6 36 0
-6 -36 0
6 39 0
-6 -39 0
6 40 0
-6 -40 0
6 41 0
-6 -41 0
6 42 0
-6 -42 0
7 9 0
-7 -9 0
7 10 0
-7 -10 0
7 12 0
-7 -12 0
7 13 0
-7 -13 0
7 18 0
-7 -18 0
7 19 0
-7 -19 0
7 22 0
-7 -22 0
7 23 0
-7 -23 0
7 24 0
-7 -24 0
7 25 0
-7 -25 0
7 26 0
-7 -26 0
7 27 0
-7 -27 0
7 28 0
-7 -28 0
7 30 0
-7 -30 0
7 32 0
-7 -32 0
7 33 0
-7 -33 0
7 34 0
-7 -34 0
7 35 0
-7 -35 0
7 36 0
-7 -36 0
7 38 0
-7 -38 0
7 40 0
-7 -40 0
7 42 0
-7 -42 0
7 43 0
-7 -43 0
8 14 0
-8 -14 0
8 16 0
-8 -16 0
8 19 0
-8 -19 0
8 28 0
-8 -28 0
8 30 0
-8 -30 0
8 32 0
-8 -32 0
8 39 0
-8 -39 0
8 40 0
-8 -40 0
8 41 0
-8 -41 0
9 11 0
-9 -11 0
9 12 0
-9 -12 0
9 13 0
-9 -13 0
9 15 0
-9 -15 0
9 18 0
-9 -18 0
9 19 0
-9 -19 0
9 21 0
-9 -21 0
9 24 0
-9 -24 0
9 25 0
-9 -25 0
9 26 0
-9 -26 0
9 28 0
-9 -28 0
9 29 0
-9 -29 0
9 30 0
-9 -30 0
9 33 0
-9 -33 0
9 37 0
-9 -37 0
9 38 0
-9 -38 0
9 39 0
-9 -39 0
9 41 0
-9 -41 0
10 15 0
-10 -15 0
10 26 0
-10 -26 0
10 33 0
-10 -33 0
10 35 0
-10 -35 0
10 36 0
-10 -36 0
10 39 0
-10 -39 0
10 40 0
-10 -40 0
10 41 0
-10 -41 0
11 14 0
-11 -14 0
11 16 0
-11 -16 0
11 18 0
-11 -18 0
11 26 0
-11 -26 0
11 27 0
-11 -27 0
11 28 0
-11 -28 0
11 32 0
-11 -32 0
11 36 0
-11 -36 0
11 38 0
-11 -38 0
11 39 0
-11 -39 0
11 40 0
-11 -40 0
11 41 0
-11 -41 0
11 42 0
-11 -42 0
12 16 0
-12 -16 0
12 17 0
-12 -17 0
12 18 0
-12 -18 0
12 19 0
-12 -19 0
12 24 0
-12 -24 0
12 28 0
-12 -28 0
12 29 0
-12 -29 0
12 31 0
-12 -31 0
12 32 0
-12 -32 0
12 35 0
-12 -35 0
12 36 0
-12 -36 0
12 38 0
-12 -38 0
12 40 0
-12 -40 0
12 41 0
-12 -41 0
13 14 0
-13 -14 0
13 20 0
-13 -20 0
13 26 0
-13 -26 0
13 28 0
-13 -28 0
13 29 0
-13 -29 0
13 33 0
-13 -33 0
13 34 0
-13 -34 0
13 37 0
-13 -37 0
13 39 0
-13 -39 0
13 40 0
-13 -40 0
13 42 0
-13 -42 0
14 15 0
-14 -15 0
14 17 0
-14 -17 0
14 21 0
-14 -21 0
14 22 0
-14 -22 0
14 26 0
-14 -26 0
14 28 0
-14 -28 0
14 34 0
-14 -34 0
14 36 0
-14 -36 0
14 38 0
-14 -38 0
14 40 0
-14 -40 0
14 42 0
-14 -42 0
15 18 0
-15 -18 0
15 24 0
-15 -24 0
15 29 0
-15 -29 0
15 30 0
-15 -30 0
15 32 0
-15 -32 0
15 33 0
-15 -33 0
15 35 0
-15 -35 0
15 38 0
-15 -38 0
15 39 0
-15 -39 0
15 41 0
-15 -41 0
15 42 0
-15 -42 0
16 18 0
-16 -18 0
16 30 0
-16 -30 0
16 31 0
-16 -31 0
16 34 0
-16 -34 0
16 35 0
-16 -35 0
16 36 0
-16 -36 0
16 38 0
-16 -38 0
16 39 0
-16 -39 0
16 40 0
-16 -40 0
16 41 0
-16 -41 0
16 43 0
-16 -43 0
17 28 0
-17 -28 0
17 31 0
-17 -31 0
17 34 0
-17 -34 0
17 35 0
-17 -35 0
17 37 0
-17 -37 0
17 38 0
-17 -38 0
17 40 0
-17 -40 0
18 19 0
-18 -19 0
18 22 0
-18 -22 0
18 23 0
-18 -23 0
18 25 0
-18 -25 0
18 26 0
-18 -26 0
18 29 0
-18 -29 0
18 30 0
-18 -30 0
18 34 0
-18 -34 0
18 35 0
-18 -35 0
18 36 0
-18 -36 0
18 40 0
-18 -40 0
18 41 0
-18 -41 0
18 42 0
-18 -42 0
19 24 0
-19 -24 0
19 26 0
-19 -26 0
19 33 0
-19 -33 0
19 34 0
-19 -34 0
19 35 0
-19 -35 0
19 36 0
-19 -36 0
19 37 0
-19 -37 0
19 41 0
-19 -41 0
20 24 0
-20 -24 0
20 29 0
-20 -29 0
20 31 0
-20 -31 0
20 32 0
-20 -32 0
20 38 0
-20 -38 0
20 39 0
-20 -39 0
20 41 0
-20 -41 0
21 23 0
-21 -23 0
21 26 0
-21 -26 0
21 29 0
-21 -29 0
21 31 0
-21 -31 0
21 32 0
-21 -32 0
21 33 0
-21 -33 0
21 38 0
-21 -38 0
21 40 0
-21 -40 0
21 42 0
-21 -42 0
22 26 0
-22 -26 0
22 30 0
-22 -30 0
22 33 0
-22 -33 0
22 35 0
-22 -35 0
22 36 0
-22 -36 0
23 28 0
-23 -28 0
23 30 0
-23 -30 0
23 34 0
-23 -34 0
23 35 0
-23 -35 0
23 40 0
-23 -40 0
24 25 0
-24 -25 0
24 29 0
-24 -29 0
24 30 0
-24 -30 0
24 32 0
-24 -32 0
24 34 0
-24 -34 0
24 37 0
-24 -37 0
24 38 0
-24 -38 0
24 40 0
-24 -40 0
24 41 0
-24 -41 0
25 26 0
-25 -26 0
25 27 0
-25 -27 0
25 31 0
-25 -31 0
25 32 0
-25 -32 0
25 34 0
-25 -34 0
25 37 0
-25 -37 0
25 40 0
-25 -40 0
25 41 0
-25 -41 0
26 27 0
-26 -27 0
26 28 0
-26 -28 0
26 29 0
-26 -29 0
26 30 0
-26 -30 0
26 31 0
-26 -31 0
26 33 0
-26 -33 0
26 34 0
-26 -34 0
26 35 0
-26 -35 0
26 36 0
-26 -36 0
26 38 0
-26 -38 0
26 39 0
-26 -39 0
26 40 0
-26 -40 0
27 32 0
-27 -32 0
27 35 0
-27 -35 0
27 36 0
-27 -36 0
27 39 0
-27 -39 0
27 41 0
-27 -41 0
28 29 0
-28 -29 0
28 30 0
-28 -30 0
28 31 0
-28 -31 0
28 32 0
-28 -32 0
28 33 0
-28 -33 0
28 35 0
-28 -35 0
28 36 0
-28 -36 0
28 38 0
-28 -38 0
28 39 0
-28 -39 0
28 40 0
-28 -40 0
28 41 0
-28 -41 0
28 42 0
-28 -42 0
28 43 0
-28 -43 0
29 30 0
-29 -30 0
29 31 0
-29 -31 0
29 32 0
-29 -32 0
29 33 0
-29 -33 0
29 35 0
-29 -35 0
29 36 0
-29 -36 0
29 40 0
-29 -40 0
29 41 0
-29 -41 0
29 42 0
-29 -42 0
29 43 0
-29 -43 0
30 31 0
-30 -31 0
30 32 0
-30 -32 0
30 33 0
-30 -33 0
30 35 0
-30 -35 0
30 37 0
-30 -37 0
30 40 0
-30 -40 0
30 41 0
-30 -41 0
31 32 0
-31 -32 0
31 33 0
-31 -33 0
31 34 0
-31 -34 0
31 35 0
-31 -35 0
31 36 0
-31 -36 0
31 39 0
-31 -39 0
31 40 0
-31 -40 0
31 41 0
-31 -41 0
32 34 0
-32 -34 0
32 35 0
-32 -35 0
32 36 0
-32 -36 0
32 38 0
-32 -38 0
32 39 0
-32 -39 0
32 40 0
-32 -40 0
32 41 0
-32 -41 0
32 42 0
-32 -42 0
32 43 0
-32 -43 0
33 34 0
-33 -34 0
33 36 0
-33 -36 0
33 40 0
-33 -40 0
34 38 0
-34 -38 0
34 40 0
-34 -40 0
34 41 0
-34 -41 0
34 43 0
-34 -43 0
35 36 0
-35 -36 0
35 37 0
-35 -37 0
35 40 0
-35 -40 0
35 41 0
-35 -41 0
35 42 0
-35 -42 0
35 43 0
-35 -43 0
36 37 0
-36 -37 0
36 40 0
-36 -40 0
37 38 0
-37 -38 0
37 39 0
-37 -39 0
37 40 0
-37 -40 0
38 40 0
-38 -40 0
38 41 0
-38 -41 0
39 41 0
-39 -41 0
39 42 0
-39 -42 0
40 41 0
-40 -41 0
40 42 0
-40 -42 0
41 43 0
-41 -43 0
42 43 0
-42 -43 0
