FourierSAT_Github_AIJ/res/fs_1core/p_hat300-2.clq.cnf.txt
o 144
o 142
o 140
